5220.0
0 0 0 0 0 0 1 0 0 0 0 0 0 0 0 0 0 0 0 0 0 0 1 0 0 1 0 0 0 1 






0 2 14 15 17 18 27 37 38 39 40 41 49 53 54 55 















1 5 7 13 16 22 23 24 34 35 47 48 50 56 57 


4 6 11 12 19 20 21 25 32 33 36 45 46 51 52 58 62 



3 8 9 10 26 28 29 30 31 42 43 44 59 60 61 63 64 65 66 67 68 69 
